Figure: large_3
File Number: 9
Nodes: 300
Edges: 22472
Max Generations: 1000
Population Size: 100
Mutation Rate: 0.01
Colors Used: 167
Runtime: 18.60

Generation,Average Fitness,Best Fitness
0,136.68,105
1,131.04,105
2,128.33,105
3,125.52,105
4,124.58,100
5,121.66,100
6,120.07,99
7,119.39,97
8,117.04,97
9,116.6,97
10,114.68,91
11,113.96,91
12,111.84,91
13,108.87,89
14,106.21,89
15,105.35,88
16,103.38,88
17,100.48,87
18,98.29,83
19,95.71,83
20,94.71,80
21,94.18,78
22,91.92,78
23,90.47,75
24,89.11,73
25,87.01,73
26,85.41,72
27,83.21,65
28,82.23,65
29,80.53,63
30,77.11,63
31,74.94,60
32,73.36,58
33,71.6,54
34,68.78,54
35,66.32,54
36,64.22,54
37,63.53,54
38,62.63,52
39,61.86,52
40,60.53,47
41,58.99,47
42,57.58,47
43,57.2,47
44,56.3,46
45,55.78,46
46,54.92,46
47,54.17,46
48,54.27,46
49,54.24,46
50,54.24,46
51,54.62,46
52,54.41,46
53,54.2,44
54,54.21,44
55,53.53,43
56,52.94,43
57,52.55,41
58,50.3,40
59,50.11,40
60,49.93,38
61,48.94,38
62,49.28,36
63,48.15,36
64,47.43,33
65,46.21,32
66,45.3,32
67,43.93,32
68,43.21,31
69,41.85,31
70,41.83,31
71,42.08,31
72,41.83,31
73,41.3,31
74,41.52,31
75,41.26,31
76,41.28,31
77,40.62,31
78,40.89,31
79,40.46,31
80,39.91,31
81,39.75,31
82,39.45,31
83,39.69,31
84,39.6,31
85,38.68,31
86,38.6,31
87,37.63,31
88,38.1,31
89,38.42,30
90,38.66,30
91,38.23,27
92,37.55,27
93,37.48,27
94,37.06,27
95,37.08,27
96,36.8,27
97,36.34,27
98,36.19,26
99,35.76,26
100,35.4,24
101,35.33,24
102,34.67,24
103,34.17,24
104,34.47,24
105,34.52,24
106,33.57,24
107,34.04,24
108,33.74,23
109,34.32,23
110,34.3,23
111,33.81,23
112,32.94,23
113,33.13,23
114,32.17,23
115,31.58,23
116,32.07,23
117,31.67,23
118,31.36,23
119,31.64,23
120,31.69,23
121,32.39,23
122,32.46,23
123,32.85,23
124,33.18,23
125,32.8,23
126,32.6,23
127,32.21,23
128,32.63,22
129,33.01,22
130,33.19,22
131,32.57,21
132,32.86,21
133,32.99,21
134,32.79,21
135,32.79,21
136,32.98,19
137,31.95,19
138,31.82,19
139,31.31,19
140,31.18,19
141,30.4,19
142,30.43,19
143,30.16,19
144,30.15,19
145,29.6,19
146,29.72,19
147,29.5,19
148,28.77,19
149,28.76,19
150,28.86,19
151,28.89,19
152,28.57,16
153,28.42,16
154,28.74,16
155,28.28,16
156,28.04,16
157,27.73,16
158,27.59,16
159,26.65,16
160,26.94,16
161,26.56,16
162,26.73,16
163,26.58,16
164,26.62,16
165,26.16,16
166,26.56,15
167,26.59,15
168,26.46,15
169,25.91,15
170,26.23,15
171,25.42,15
172,24.77,15
173,25.09,14
174,24.11,14
175,24.03,14
176,23.9,14
177,23.27,14
178,23.35,14
179,23.89,14
180,23.84,14
181,23.92,14
182,23.64,14
183,23.54,14
184,23.24,14
185,23.5,14
186,23.64,13
187,24.17,13
188,24.56,13
189,24.92,13
190,24.54,13
191,24.91,13
192,25.62,13
193,25.14,13
194,23.91,13
195,23.26,13
196,23.12,13
197,23.22,13
198,23.05,12
199,22.0,12
200,21.8,12
201,21.75,12
202,21.89,12
203,22.22,12
204,22.06,12
205,21.13,12
206,21.43,12
207,22.19,12
208,21.71,12
209,22.43,12
210,22.79,12
211,23.09,12
212,22.79,12
213,22.82,12
214,22.39,12
215,22.56,12
216,22.35,12
217,22.64,12
218,22.73,12
219,22.39,12
220,22.14,12
221,21.71,10
222,21.91,10
223,21.67,10
224,20.73,10
225,20.59,10
226,20.27,10
227,19.73,10
228,19.36,10
229,18.98,10
230,18.94,10
231,19.13,8
232,18.88,8
233,18.36,7
234,18.26,7
235,17.59,7
236,17.72,7
237,18.88,7
238,19.26,7
239,19.4,7
240,18.99,5
241,18.15,5
242,17.19,5
243,17.43,5
244,16.92,5
245,17.94,5
246,17.59,5
247,17.54,5
248,17.71,5
249,18.19,5
250,18.05,5
251,17.67,5
252,18.17,5
253,18.96,5
254,19.08,5
255,19.16,5
256,18.71,5
257,18.29,5
258,18.22,5
259,18.44,5
260,17.88,5
261,17.96,5
262,18.11,5
263,18.81,5
264,18.75,5
265,19.24,5
266,19.67,5
267,19.8,5
268,20.18,5
269,19.66,5
270,18.94,5
271,18.3,5
272,18.02,5
273,18.32,5
274,18.1,5
275,18.26,5
276,18.62,5
277,18.88,5
278,18.63,5
279,17.99,5
280,18.06,5
281,18.06,5
282,18.16,5
283,17.29,5
284,17.71,5
285,17.61,5
286,16.64,5
287,15.7,5
288,15.36,5
289,15.53,5
290,15.06,5
291,15.26,5
292,15.26,5
293,15.89,5
294,15.95,5
295,16.43,5
296,15.86,5
297,16.34,5
298,16.23,5
299,15.74,5
300,15.84,5
301,16.38,5
302,17.15,5
303,17.77,5
304,18.57,5
305,18.11,5
306,18.22,5
307,18.83,5
308,18.5,5
309,17.84,5
310,17.88,5
311,17.81,5
312,17.38,5
313,16.84,5
314,17.69,5
315,17.21,5
316,17.48,5
317,17.59,5
318,17.94,5
319,18.96,5
320,18.85,5
321,19.24,5
322,19.07,5
323,18.25,5
324,18.9,5
325,18.11,5
326,17.85,5
327,16.91,5
328,16.21,5
329,16.33,5
330,17.34,5
331,17.18,5
332,15.65,5
333,15.54,5
334,15.23,5
335,15.73,5
336,15.7,5
337,16.08,5
338,16.39,5
339,16.51,5
340,16.45,5
341,16.59,5
342,16.27,5
343,16.22,5
344,17.0,5
345,17.09,5
346,16.48,5
347,16.46,5
348,17.09,5
349,16.77,5
350,16.38,5
351,16.36,5
352,15.93,5
353,15.22,5
354,16.15,5
355,16.97,5
356,17.26,5
357,17.05,5
358,17.42,5
359,17.78,5
360,18.2,5
361,19.12,5
362,19.43,5
363,18.76,5
364,18.23,5
365,17.58,5
366,17.44,5
367,16.69,5
368,17.09,5
369,17.16,5
370,17.29,5
371,16.5,5
372,16.72,5
373,16.82,5
374,16.92,5
375,16.79,5
376,17.06,5
377,17.3,5
378,16.85,5
379,16.87,5
380,17.43,5
381,17.46,5
382,16.57,5
383,16.94,5
384,17.2,5
385,17.11,5
386,17.15,5
387,17.66,5
388,17.99,5
389,17.81,5
390,18.31,5
391,18.41,5
392,17.8,5
393,17.48,5
394,17.28,5
395,18.27,5
396,18.12,5
397,17.76,5
398,17.29,5
399,17.31,5
400,17.6,5
401,17.86,5
402,17.88,5
403,16.9,5
404,16.88,5
405,17.04,5
406,16.89,5
407,17.11,5
408,17.08,5
409,16.97,5
410,16.43,5
411,16.73,5
412,16.79,5
413,16.38,5
414,15.62,5
415,15.45,5
416,14.93,5
417,15.68,5
418,15.98,5
419,16.91,5
420,17.04,5
421,16.68,5
422,17.02,5
423,16.69,5
424,16.33,5
425,16.77,5
426,16.57,5
427,16.24,5
428,16.59,5
429,17.38,5
430,17.39,5
431,17.46,5
432,17.44,5
433,17.0,5
434,17.31,5
435,17.55,5
436,17.11,5
437,16.86,5
438,16.64,5
439,16.4,5
440,16.24,5
441,16.68,5
442,16.7,5
443,17.16,5
444,17.28,5
445,17.25,5
446,17.11,5
447,16.52,5
448,17.05,5
449,17.64,5
450,16.88,5
451,16.95,5
452,16.96,5
453,17.3,5
454,16.77,5
455,17.54,5
456,18.32,5
457,18.67,5
458,19.56,5
459,19.66,5
460,19.3,5
461,19.24,5
462,19.19,5
463,17.9,5
464,17.33,5
465,16.94,5
466,16.8,5
467,16.77,5
468,17.04,5
469,17.38,5
470,17.76,5
471,18.12,5
472,18.03,5
473,18.85,5
474,18.69,5
475,17.85,5
476,18.65,5
477,18.98,5
478,18.77,5
479,18.03,5
480,17.62,5
481,17.64,5
482,17.55,5
483,16.64,5
484,16.72,5
485,17.44,5
486,18.05,5
487,18.45,5
488,18.89,5
489,18.76,5
490,19.06,5
491,18.57,5
492,18.33,5
493,18.04,5
494,17.81,5
495,18.18,5
496,18.7,5
497,18.35,5
498,18.3,5
499,18.33,5
500,18.16,5
501,18.08,5
502,18.79,5
503,18.64,5
504,18.74,5
505,18.72,5
506,19.23,5
507,19.52,5
508,19.95,5
509,20.04,5
510,20.15,5
511,20.01,5
512,19.7,5
513,19.61,5
514,18.8,5
515,18.35,5
516,18.48,5
517,18.45,5
518,18.97,4
519,18.62,4
520,18.44,4
521,18.41,4
522,19.12,4
523,19.35,4
524,18.79,4
525,17.41,4
526,16.89,4
527,16.96,4
528,16.77,4
529,16.7,4
530,17.37,4
531,16.74,4
532,16.49,4
533,15.93,4
534,15.63,4
535,15.25,4
536,15.64,4
537,16.12,4
538,16.36,4
539,16.0,4
540,16.52,4
541,17.39,4
542,17.74,4
543,17.96,4
544,17.81,4
545,17.14,4
546,17.64,4
547,17.4,4
548,18.29,4
549,18.38,4
550,18.57,4
551,17.81,4
552,17.6,4
553,16.56,4
554,16.5,4
555,16.44,4
556,16.71,4
557,16.85,4
558,16.94,4
559,17.12,4
560,17.38,4
561,16.07,4
562,15.93,4
563,14.82,4
564,15.11,4
565,15.02,4
566,15.09,4
567,15.25,4
568,15.89,4
569,15.43,4
570,15.68,4
571,15.48,4
572,16.2,4
573,15.82,4
574,15.29,4
575,15.01,4
576,15.1,4
577,15.27,4
578,15.98,4
579,17.61,4
580,17.02,4
581,16.85,4
582,17.17,4
583,16.81,4
584,16.53,4
585,16.48,4
586,16.26,4
587,15.51,4
588,15.11,4
589,14.73,4
590,15.33,4
591,15.31,4
592,14.83,4
593,14.85,4
594,16.2,4
595,15.58,4
596,14.89,4
597,14.44,4
598,14.61,4
599,15.53,4
600,15.49,4
601,15.44,4
602,15.13,4
603,14.76,4
604,15.45,4
605,15.82,4
606,15.49,4
607,15.93,4
608,14.88,4
609,15.28,4
610,15.65,4
611,16.42,4
612,16.1,4
613,15.74,4
614,15.06,4
615,15.27,4
616,16.07,4
617,15.5,4
618,15.13,4
619,15.24,4
620,15.55,4
621,15.9,4
622,15.87,4
623,15.82,4
624,15.38,4
625,15.31,4
626,14.84,4
627,15.32,4
628,16.04,4
629,16.7,4
630,17.07,4
631,16.63,4
632,16.84,4
633,17.35,4
634,16.92,4
635,17.09,4
636,17.56,4
637,16.39,4
638,16.67,4
639,16.72,4
640,17.22,4
641,17.06,4
642,17.23,4
643,17.67,4
644,17.54,4
645,17.46,4
646,16.74,4
647,16.36,4
648,16.35,4
649,16.56,4
650,16.67,4
651,16.05,4
652,15.61,4
653,15.29,4
654,15.66,4
655,15.2,4
656,15.83,4
657,15.66,4
658,15.49,4
659,15.37,4
660,15.43,4
661,14.98,4
662,14.62,4
663,15.55,4
664,15.32,4
665,15.76,4
666,16.08,4
667,15.99,4
668,15.51,4
669,15.96,4
670,16.33,4
671,16.83,4
672,16.34,4
673,16.14,4
674,15.83,4
675,16.1,4
676,16.35,4
677,16.86,4
678,16.99,4
679,17.35,4
680,17.64,4
681,17.48,4
682,18.22,4
683,18.37,4
684,18.51,4
685,17.39,4
686,16.93,4
687,17.15,4
688,17.82,4
689,18.5,4
690,17.93,4
691,17.11,4
692,16.99,4
693,16.99,4
694,17.33,4
695,17.38,4
696,17.58,4
697,17.16,4
698,17.31,4
699,17.05,4
700,16.5,4
701,16.05,4
702,16.3,4
703,15.66,4
704,15.68,4
705,16.09,4
706,16.16,4
707,16.83,4
708,16.57,4
709,16.36,4
710,15.65,4
711,16.07,4
712,15.86,4
713,16.24,4
714,16.99,4
715,16.07,4
716,16.09,4
717,15.65,4
718,16.99,4
719,17.57,4
720,17.12,4
721,17.59,4
722,18.08,4
723,18.04,4
724,17.31,4
725,16.7,4
726,16.93,4
727,16.33,4
728,16.57,4
729,16.67,4
730,16.44,4
731,15.77,4
732,15.3,4
733,14.96,4
734,15.18,4
735,14.63,4
736,15.59,4
737,16.1,4
738,16.35,4
739,15.5,4
740,15.54,4
741,15.2,4
742,16.06,4
743,15.64,4
744,15.58,4
745,15.31,4
746,14.84,4
747,14.85,4
748,15.65,4
749,14.96,4
750,15.01,4
751,14.49,4
752,14.57,4
753,15.19,4
754,15.83,4
755,16.37,4
756,16.25,4
757,16.07,4
758,15.41,4
759,15.64,4
760,15.41,4
761,14.58,4
762,14.94,4
763,14.72,4
764,14.83,4
765,13.97,4
766,13.67,4
767,14.35,4
768,14.6,4
769,15.06,4
770,15.16,4
771,14.99,4
772,15.87,4
773,16.31,4
774,16.19,4
775,15.77,4
776,15.13,4
777,14.77,4
778,14.91,4
779,14.86,4
780,15.03,4
781,15.67,4
782,15.96,4
783,16.03,4
784,17.12,4
785,16.48,4
786,16.33,4
787,16.61,4
788,16.18,4
789,16.86,4
790,16.73,4
791,16.97,4
792,17.19,4
793,17.33,4
794,17.0,4
795,16.59,4
796,17.01,4
797,16.01,4
798,15.82,4
799,15.49,4
800,13.97,4
801,13.56,4
802,14.06,4
803,14.49,4
804,14.16,4
805,14.02,4
806,14.23,4
807,14.65,4
808,14.51,4
809,14.83,4
810,15.26,4
811,15.43,4
812,14.97,4
813,14.87,4
814,14.69,4
815,14.0,4
816,14.21,4
817,13.77,4
818,14.05,4
819,13.92,4
820,14.2,4
821,14.8,4
822,14.83,4
823,14.8,4
824,13.99,4
825,13.78,4
826,14.09,4
827,13.74,4
828,13.36,4
829,13.71,4
830,14.41,4
831,14.66,4
832,15.5,4
833,15.59,4
834,15.89,4
835,15.75,4
836,15.41,4
837,15.81,4
838,16.0,4
839,16.96,4
840,17.45,4
841,16.26,4
842,15.67,4
843,16.06,4
844,16.35,4
845,16.74,4
846,16.82,4
847,16.88,4
848,16.5,4
849,15.79,4
850,15.65,4
851,15.85,4
852,16.5,4
853,16.98,4
854,17.63,4
855,18.21,4
856,18.6,4
857,18.56,4
858,18.75,4
859,18.87,4
860,18.31,4
861,17.14,4
862,17.78,4
863,17.97,4
864,17.47,4
865,17.69,4
866,16.15,4
867,16.04,4
868,16.33,4
869,16.79,4
870,16.86,4
871,17.85,4
872,16.88,4
873,16.79,4
874,16.1,4
875,16.56,4
876,16.74,4
877,16.18,4
878,16.91,4
879,16.92,4
880,16.63,4
881,17.0,4
882,16.98,4
883,16.56,4
884,15.58,4
885,15.46,4
886,15.89,4
887,15.17,4
888,15.24,4
889,15.09,4
890,15.6,4
891,16.22,4
892,16.47,4
893,16.79,4
894,16.63,4
895,16.64,4
896,16.78,4
897,16.32,4
898,16.08,4
899,16.36,4
900,16.45,4
901,16.56,4
902,16.87,4
903,16.67,4
904,16.56,4
905,16.83,4
906,16.74,4
907,16.76,4
908,16.29,4
909,15.63,4
910,15.59,4
911,16.45,4
912,16.15,4
913,17.07,4
914,16.64,4
915,17.33,4
916,16.99,4
917,16.51,4
918,17.01,4
919,16.99,4
920,17.69,4
921,18.39,4
922,17.44,4
923,16.56,4
924,16.55,4
925,15.97,4
926,15.63,4
927,14.88,4
928,15.14,4
929,16.08,4
930,16.67,4
931,16.53,4
932,16.7,4
933,17.24,4
934,17.59,4
935,16.39,4
936,16.03,4
937,15.34,4
938,14.96,4
939,15.73,4
940,16.25,4
941,15.87,4
942,16.19,4
943,16.1,4
944,15.05,4
945,14.63,4
946,14.47,4
947,14.42,4
948,14.33,4
949,14.97,4
950,14.97,4
951,15.12,4
952,14.72,4
953,14.76,4
954,14.44,4
955,14.9,4
956,14.75,4
957,15.0,4
958,14.56,4
959,14.41,4
960,14.74,4
961,15.35,4
962,15.36,4
963,15.4,4
964,14.41,4
965,14.71,4
966,14.25,4
967,14.03,4
968,14.08,4
969,13.75,4
970,13.5,4
971,14.12,4
972,13.9,4
973,14.37,4
974,15.24,4
975,15.55,4
976,15.84,4
977,14.88,4
978,14.87,4
979,15.63,4
980,15.56,4
981,15.7,4
982,15.61,4
983,14.71,4
984,14.61,4
985,14.93,4
986,14.54,4
987,15.27,4
988,16.29,4
989,16.61,4
990,17.29,4
991,17.35,4
992,16.85,4
993,16.82,4
994,16.77,4
995,16.76,4
996,17.17,4
997,17.19,4
998,17.48,4
999,17.25,4
